; benchmark generated from python API
(set-info :status unknown)
(declare-datatypes ((IntState 0)) (((Mk1 (val1 Int)) (Mk2 (val2 Int)))))
 (declare-fun c_main_~i~6 () Int)
(declare-fun c_main_~j~6 () Int)
(declare-fun c_main_~k~6 () Int)
(assert
 (let (($x24 (<= c_main_~i~6 3)))
 (let (($x94 (exists ((v_nnf_96_st IntState) (val!169 Int) )(let ((?x56 (val2 v_nnf_96_st)))
 (let (($x152 (<= ?x56 4)))
 (let (($x153 (and (<= (+ ?x56 2) c_main_~k~6) (<= c_main_~j~6 (+ (* 2 ?x56) 2)) $x152)))
 (let (($x52 (not (= v_nnf_96_st (Mk1 val!169)))))
 (and $x52 $x153))))))
 ))
 (let (($x120 (<= c_main_~j~6 (+ (* 2 c_main_~i~6) 2))))
 (let (($x105 (<= c_main_~i~6 4)))
 (let (($x47 (<= c_main_~j~6 (+ (* 2 c_main_~i~6) 1))))
 (let (($x170 (exists ((v_nnf_98 Int) )(let (($x111 (<= c_main_~j~6 (+ (* 2 v_nnf_98) 2))))
 (let (($x5 (<= v_nnf_98 4)))
 (and (<= (+ v_nnf_98 3) c_main_~k~6) $x5 $x111))))
 ))
 (let (($x174 (<= c_main_~i~6 2)))
 (and (and $x47 $x105 $x120 $x174 $x24 $x170) (not (and $x47 $x105 $x120 $x94 $x24)))))))))))
(check-sat)
